50 10470

332
284
307
189
350
38
231
133
251
409
127
335
234
156
153
100
209
149
286
481
334
435
196
14
422
436
487
212
468
14
354
409
133
470
204
427
337
302
355
64
181
56
486
236
179
444
182
71
186
240
